100
2482
20
5
73
81
6
11
36
59
34
53
6
91
43
61
29
78
1
96
91
70
16
0 3
0 5
0 6
0 7
0 9
0 12
0 14
0 16
0 18
0 20
0 23
0 25
0 26
0 29
0 32
0 34
0 36
0 40
0 46
0 47
0 48
0 51
0 52
0 53
0 55
0 58
0 60
0 61
0 62
0 65
0 66
0 67
0 68
0 70
0 76
0 77
0 78
0 80
0 81
0 86
0 87
0 91
0 93
0 94
0 96
0 97
1 4
1 6
1 9
1 10
1 11
1 12
1 13
1 14
1 15
1 16
1 18
1 21
1 22
1 23
1 26
1 27
1 30
1 36
1 42
1 49
1 51
1 52
1 53
1 56
1 60
1 61
1 62
1 63
1 64
1 65
1 68
1 73
1 75
1 81
1 83
1 87
1 90
1 91
1 98
2 5
2 7
2 8
2 11
2 12
2 14
2 15
2 17
2 18
2 20
2 22
2 23
2 25
2 26
2 29
2 30
2 35
2 37
2 38
2 39
2 42
2 43
2 44
2 48
2 51
2 52
2 54
2 57
2 63
2 64
2 65
2 69
2 70
2 71
2 73
2 74
2 75
2 76
2 78
2 80
2 84
2 85
2 87
2 88
2 90
2 91
2 92
2 93
2 94
2 97
3 5
3 9
3 11
3 13
3 14
3 19
3 21
3 22
3 25
3 28
3 30
3 33
3 34
3 35
3 36
3 38
3 39
3 41
3 43
3 45
3 48
3 49
3 50
3 51
3 52
3 54
3 56
3 58
3 60
3 61
3 64
3 66
3 67
3 68
3 72
3 73
3 75
3 76
3 79
3 80
3 81
3 82
3 84
3 85
3 88
3 89
3 90
3 95
3 97
3 99
4 5
4 6
4 12
4 16
4 17
4 20
4 21
4 22
4 23
4 25
4 26
4 28
4 29
4 30
4 32
4 33
4 34
4 37
4 38
4 39
4 42
4 43
4 46
4 49
4 51
4 55
4 56
4 57
4 58
4 59
4 61
4 62
4 65
4 67
4 72
4 74
4 75
4 77
4 78
4 79
4 80
4 82
4 83
4 84
4 86
4 88
4 89
4 90
4 93
4 94
4 95
4 98
4 99
5 7
5 8
5 10
5 13
5 14
5 17
5 18
5 20
5 23
5 25
5 29
5 30
5 34
5 37
5 38
5 39
5 41
5 44
5 45
5 47
5 51
5 52
5 54
5 58
5 59
5 61
5 62
5 64
5 65
5 66
5 69
5 70
5 71
5 73
5 75
5 78
5 81
5 82
5 85
5 87
5 88
5 91
5 92
5 94
5 96
5 97
5 99
6 7
6 8
6 9
6 10
6 11
6 14
6 15
6 16
6 17
6 22
6 23
6 25
6 26
6 28
6 29
6 30
6 34
6 35
6 38
6 40
6 42
6 43
6 44
6 45
6 46
6 47
6 48
6 49
6 50
6 51
6 53
6 54
6 57
6 59
6 60
6 61
6 66
6 68
6 69
6 71
6 75
6 76
6 80
6 82
6 84
6 87
6 88
6 91
6 93
6 94
6 96
6 97
7 9
7 13
7 14
7 15
7 16
7 17
7 19
7 20
7 22
7 25
7 26
7 27
7 28
7 30
7 32
7 33
7 34
7 36
7 37
7 38
7 42
7 44
7 46
7 47
7 49
7 50
7 52
7 54
7 56
7 57
7 62
7 63
7 64
7 65
7 66
7 67
7 70
7 71
7 72
7 73
7 76
7 77
7 78
7 81
7 82
7 83
7 86
7 88
7 89
7 91
7 96
7 97
7 99
8 9
8 12
8 13
8 14
8 15
8 26
8 30
8 31
8 33
8 35
8 37
8 38
8 40
8 41
8 42
8 43
8 45
8 46
8 47
8 48
8 49
8 50
8 53
8 57
8 58
8 59
8 62
8 64
8 67
8 71
8 72
8 73
8 74
8 76
8 77
8 78
8 81
8 84
8 85
8 86
8 89
8 94
8 95
8 97
9 10
9 12
9 13
9 14
9 16
9 19
9 23
9 24
9 26
9 27
9 32
9 38
9 39
9 41
9 42
9 43
9 45
9 47
9 48
9 49
9 52
9 53
9 58
9 59
9 60
9 63
9 65
9 66
9 70
9 72
9 73
9 78
9 80
9 81
9 83
9 84
9 85
9 86
9 89
9 90
9 92
9 94
9 96
9 99
10 13
10 14
10 15
10 17
10 18
10 20
10 24
10 26
10 27
10 29
10 30
10 39
10 44
10 46
10 48
10 49
10 50
10 52
10 53
10 54
10 55
10 57
10 59
10 61
10 63
10 66
10 67
10 69
10 73
10 74
10 75
10 76
10 78
10 79
10 80
10 81
10 85
10 86
10 87
10 89
10 92
10 94
10 96
10 97
10 98
10 99
11 13
11 15
11 16
11 18
11 19
11 21
11 23
11 24
11 26
11 27
11 29
11 30
11 32
11 34
11 36
11 37
11 39
11 41
11 42
11 44
11 45
11 46
11 47
11 48
11 51
11 57
11 58
11 59
11 65
11 68
11 70
11 72
11 73
11 74
11 76
11 78
11 79
11 82
11 84
11 89
11 91
11 92
11 93
11 94
11 95
11 96
11 97
11 98
12 16
12 19
12 22
12 24
12 25
12 28
12 30
12 32
12 34
12 39
12 40
12 41
12 42
12 45
12 46
12 47
12 48
12 49
12 50
12 52
12 53
12 54
12 58
12 59
12 60
12 61
12 63
12 66
12 68
12 78
12 80
12 81
12 82
12 83
12 86
12 87
12 88
12 90
12 94
12 98
12 99
13 15
13 16
13 18
13 19
13 24
13 26
13 28
13 29
13 31
13 32
13 34
13 36
13 38
13 39
13 40
13 42
13 44
13 46
13 49
13 50
13 51
13 53
13 55
13 56
13 58
13 59
13 60
13 61
13 62
13 64
13 65
13 70
13 73
13 75
13 78
13 79
13 82
13 84
13 86
13 88
13 89
13 92
13 94
13 95
13 98
13 99
14 15
14 16
14 18
14 20
14 21
14 22
14 24
14 25
14 29
14 33
14 35
14 37
14 47
14 50
14 57
14 58
14 59
14 61
14 63
14 65
14 66
14 67
14 68
14 70
14 71
14 73
14 74
14 76
14 77
14 78
14 81
14 82
14 83
14 87
14 89
14 95
14 96
14 99
15 18
15 20
15 23
15 26
15 30
15 31
15 32
15 38
15 39
15 42
15 43
15 45
15 48
15 53
15 54
15 55
15 56
15 57
15 58
15 60
15 63
15 65
15 67
15 68
15 70
15 71
15 72
15 73
15 74
15 76
15 80
15 81
15 88
15 92
15 93
15 94
15 96
15 97
16 19
16 23
16 26
16 28
16 29
16 32
16 34
16 36
16 38
16 41
16 42
16 43
16 46
16 49
16 50
16 58
16 59
16 60
16 62
16 63
16 65
16 67
16 69
16 73
16 81
16 82
16 83
16 84
16 87
16 88
16 89
16 90
16 91
16 98
17 20
17 21
17 22
17 23
17 26
17 27
17 29
17 30
17 31
17 32
17 35
17 36
17 40
17 41
17 43
17 44
17 46
17 48
17 52
17 53
17 54
17 57
17 60
17 64
17 66
17 70
17 71
17 73
17 74
17 75
17 77
17 78
17 79
17 82
17 83
17 84
17 85
17 87
17 90
17 92
17 95
17 98
18 20
18 22
18 23
18 24
18 26
18 27
18 28
18 29
18 34
18 35
18 36
18 40
18 42
18 43
18 45
18 49
18 50
18 51
18 52
18 55
18 56
18 57
18 58
18 60
18 62
18 63
18 65
18 67
18 71
18 72
18 76
18 81
18 82
18 83
18 84
18 85
18 86
18 89
18 90
18 91
18 92
18 93
18 95
18 96
18 99
19 23
19 25
19 28
19 32
19 33
19 34
19 38
19 45
19 46
19 47
19 50
19 51
19 53
19 54
19 55
19 56
19 57
19 59
19 60
19 63
19 65
19 66
19 68
19 70
19 71
19 72
19 73
19 74
19 76
19 77
19 78
19 80
19 82
19 89
19 90
19 93
19 94
19 97
19 98
20 23
20 29
20 30
20 32
20 33
20 34
20 36
20 37
20 38
20 39
20 40
20 42
20 44
20 45
20 47
20 48
20 49
20 50
20 51
20 52
20 53
20 55
20 58
20 59
20 63
20 64
20 68
20 70
20 74
20 75
20 77
20 79
20 82
20 84
20 87
20 88
20 89
20 92
20 94
20 96
20 97
20 98
20 99
21 23
21 24
21 25
21 27
21 29
21 31
21 32
21 33
21 35
21 38
21 40
21 41
21 42
21 44
21 46
21 47
21 48
21 49
21 50
21 52
21 56
21 58
21 61
21 65
21 69
21 72
21 73
21 74
21 78
21 79
21 82
21 85
21 87
21 89
21 90
21 91
21 94
21 96
21 97
21 98
22 23
22 26
22 31
22 32
22 34
22 35
22 42
22 44
22 47
22 49
22 50
22 52
22 53
22 55
22 56
22 57
22 58
22 61
22 62
22 63
22 66
22 68
22 71
22 72
22 74
22 75
22 79
22 81
22 82
22 84
22 85
22 87
22 88
22 90
22 91
22 92
22 94
22 96
22 98
22 99
23 24
23 28
23 30
23 32
23 33
23 34
23 35
23 38
23 40
23 41
23 44
23 45
23 47
23 48
23 49
23 50
23 52
23 53
23 55
23 57
23 60
23 61
23 65
23 67
23 69
23 72
23 74
23 76
23 77
23 79
23 80
23 81
23 83
23 85
23 86
23 89
23 93
23 94
23 98
23 99
24 25
24 26
24 28
24 30
24 32
24 34
24 36
24 38
24 39
24 41
24 44
24 45
24 47
24 52
24 59
24 60
24 62
24 64
24 66
24 72
24 73
24 74
24 75
24 77
24 79
24 80
24 82
24 83
24 84
24 88
24 89
24 91
24 93
24 94
24 95
24 99
25 27
25 28
25 29
25 30
25 33
25 34
25 38
25 41
25 42
25 43
25 46
25 50
25 51
25 53
25 54
25 56
25 57
25 59
25 63
25 64
25 68
25 69
25 70
25 72
25 73
25 75
25 77
25 82
25 83
25 86
25 90
25 93
25 95
25 96
25 97
26 27
26 28
26 29
26 31
26 32
26 33
26 34
26 35
26 37
26 40
26 41
26 42
26 43
26 44
26 45
26 47
26 48
26 49
26 50
26 52
26 54
26 55
26 56
26 57
26 58
26 59
26 61
26 63
26 67
26 68
26 71
26 72
26 74
26 75
26 78
26 81
26 82
26 83
26 84
26 85
26 86
26 88
26 89
26 92
26 98
26 99
27 28
27 34
27 39
27 40
27 41
27 43
27 44
27 45
27 46
27 48
27 49
27 51
27 56
27 58
27 60
27 63
27 65
27 68
27 69
27 70
27 72
27 73
27 75
27 76
27 77
27 78
27 82
27 83
27 84
27 86
27 88
27 92
27 93
27 94
27 95
27 97
27 98
27 99
28 29
28 30
28 32
28 36
28 37
28 38
28 39
28 40
28 42
28 43
28 44
28 45
28 48
28 49
28 50
28 54
28 56
28 57
28 59
28 66
28 67
28 70
28 72
28 77
28 80
28 82
28 83
28 86
28 87
28 88
28 89
28 90
28 92
28 94
28 96
28 98
29 30
29 31
29 32
29 34
29 36
29 39
29 41
29 44
29 45
29 48
29 49
29 51
29 53
29 54
29 55
29 58
29 63
29 66
29 67
29 68
29 70
29 71
29 73
29 74
29 75
29 81
29 83
29 84
29 85
29 93
29 94
29 96
29 97
29 99
30 32
30 36
30 43
30 46
30 49
30 50
30 52
30 55
30 56
30 58
30 59
30 61
30 62
30 63
30 65
30 66
30 69
30 70
30 71
30 73
30 77
30 78
30 79
30 80
30 81
30 85
30 91
30 92
31 34
31 35
31 37
31 38
31 40
31 41
31 43
31 44
31 45
31 46
31 47
31 50
31 52
31 53
31 54
31 58
31 59
31 60
31 61
31 63
31 65
31 66
31 67
31 68
31 70
31 71
31 72
31 73
31 74
31 75
31 76
31 77
31 78
31 81
31 82
31 83
31 84
31 85
31 86
31 89
31 91
31 92
31 94
31 97
31 98
31 99
32 33
32 40
32 43
32 44
32 45
32 48
32 49
32 50
32 51
32 52
32 54
32 55
32 59
32 64
32 65
32 66
32 71
32 72
32 73
32 74
32 79
32 82
32 83
32 84
32 86
32 87
32 91
32 92
32 94
32 95
32 96
32 97
32 98
32 99
33 35
33 39
33 40
33 41
33 43
33 46
33 48
33 49
33 50
33 51
33 52
33 55
33 56
33 58
33 59
33 60
33 62
33 67
33 68
33 72
33 76
33 78
33 79
33 83
33 84
33 85
33 86
33 87
33 89
33 91
33 95
33 96
33 97
33 98
33 99
34 37
34 38
34 39
34 40
34 42
34 44
34 46
34 48
34 49
34 55
34 56
34 57
34 58
34 59
34 60
34 62
34 63
34 65
34 66
34 69
34 70
34 71
34 75
34 76
34 77
34 79
34 81
34 83
34 84
34 85
34 89
34 91
34 92
34 95
34 96
34 99
35 37
35 39
35 40
35 50
35 53
35 54
35 57
35 58
35 59
35 60
35 61
35 66
35 68
35 69
35 71
35 74
35 77
35 80
35 81
35 83
35 84
35 85
35 89
35 90
35 91
35 92
35 94
35 95
36 37
36 38
36 41
36 47
36 48
36 49
36 50
36 51
36 53
36 55
36 58
36 62
36 65
36 66
36 70
36 71
36 74
36 77
36 79
36 80
36 82
36 85
36 86
36 88
36 93
36 94
36 96
36 99
37 38
37 41
37 46
37 47
37 48
37 50
37 52
37 60
37 61
37 64
37 65
37 72
37 73
37 74
37 75
37 77
37 79
37 82
37 86
37 87
37 88
37 89
37 93
37 94
37 96
37 98
38 40
38 41
38 45
38 48
38 50
38 51
38 53
38 54
38 55
38 60
38 61
38 63
38 67
38 70
38 73
38 77
38 78
38 81
38 82
38 84
38 87
38 88
38 90
38 92
38 94
38 97
39 40
39 43
39 46
39 47
39 48
39 49
39 50
39 51
39 52
39 54
39 56
39 62
39 63
39 64
39 65
39 73
39 74
39 75
39 78
39 79
39 80
39 82
39 84
39 86
39 90
39 91
39 97
39 98
40 41
40 43
40 46
40 51
40 52
40 53
40 57
40 58
40 61
40 63
40 64
40 66
40 67
40 68
40 69
40 70
40 74
40 76
40 77
40 82
40 88
40 90
40 91
40 93
40 94
40 97
41 42
41 43
41 45
41 47
41 52
41 54
41 57
41 60
41 65
41 66
41 68
41 69
41 71
41 76
41 78
41 79
41 81
41 82
41 84
41 85
41 86
41 87
41 88
41 89
41 94
41 97
41 98
42 44
42 47
42 48
42 50
42 51
42 53
42 60
42 61
42 62
42 63
42 64
42 65
42 67
42 68
42 69
42 71
42 75
42 76
42 77
42 79
42 81
42 87
42 88
42 89
42 92
42 93
42 95
42 96
42 97
42 98
42 99
43 46
43 53
43 54
43 56
43 57
43 58
43 59
43 60
43 64
43 65
43 69
43 71
43 72
43 73
43 74
43 76
43 78
43 81
43 83
43 86
43 87
43 88
43 90
43 92
43 94
43 95
43 96
43 97
43 98
43 99
44 46
44 49
44 53
44 54
44 55
44 57
44 58
44 59
44 61
44 62
44 63
44 65
44 66
44 71
44 73
44 75
44 78
44 84
44 86
44 87
44 88
44 90
44 93
44 94
44 96
45 46
45 47
45 48
45 51
45 52
45 53
45 54
45 55
45 56
45 62
45 64
45 65
45 67
45 70
45 75
45 77
45 78
45 80
45 81
45 82
45 84
45 88
45 90
45 91
45 96
45 97
45 98
46 49
46 50
46 53
46 55
46 57
46 58
46 63
46 64
46 66
46 67
46 69
46 70
46 71
46 89
46 90
46 92
46 95
46 96
46 97
46 98
46 99
47 49
47 51
47 55
47 56
47 57
47 63
47 65
47 66
47 69
47 72
47 73
47 74
47 75
47 81
47 82
47 83
47 84
47 85
47 88
47 89
47 90
47 93
47 94
47 96
48 52
48 55
48 56
48 57
48 58
48 59
48 61
48 63
48 64
48 66
48 67
48 68
48 69
48 70
48 72
48 73
48 74
48 76
48 77
48 79
48 81
48 82
48 85
48 88
48 89
48 91
48 93
48 94
48 97
48 98
48 99
49 50
49 51
49 52
49 55
49 58
49 59
49 62
49 63
49 64
49 70
49 71
49 72
49 73
49 74
49 75
49 77
49 78
49 80
49 83
49 85
49 87
49 88
49 89
49 90
49 92
49 93
49 95
50 53
50 57
50 60
50 63
50 65
50 66
50 68
50 69
50 71
50 72
50 73
50 78
50 79
50 81
50 83
50 85
50 87
50 88
50 89
50 90
50 94
50 96
50 97
51 52
51 54
51 55
51 56
51 57
51 58
51 59
51 60
51 61
51 63
51 64
51 65
51 67
51 68
51 69
51 70
51 72
51 74
51 77
51 78
51 80
51 83
51 84
51 86
51 88
51 91
51 93
51 94
51 95
51 97
51 98
52 53
52 56
52 59
52 61
52 63
52 64
52 65
52 68
52 69
52 71
52 74
52 75
52 76
52 78
52 79
52 81
52 84
52 86
52 87
52 90
52 93
52 94
52 97
52 98
53 56
53 57
53 58
53 61
53 62
53 64
53 67
53 68
53 69
53 70
53 74
53 76
53 79
53 80
53 86
53 87
53 90
53 91
53 92
53 95
53 96
54 56
54 57
54 58
54 64
54 67
54 76
54 79
54 80
54 81
54 83
54 84
54 87
54 89
54 90
54 93
54 95
54 96
54 98
55 56
55 57
55 58
55 59
55 60
55 61
55 62
55 64
55 65
55 68
55 70
55 71
55 72
55 75
55 78
55 82
55 83
55 84
55 85
55 89
55 91
55 92
55 94
55 95
55 97
55 98
55 99
56 61
56 62
56 65
56 70
56 71
56 72
56 74
56 77
56 79
56 81
56 86
56 88
56 91
56 94
56 98
56 99
57 58
57 59
57 61
57 63
57 65
57 67
57 68
57 71
57 72
57 73
57 74
57 76
57 77
57 78
57 81
57 82
57 83
57 84
57 89
57 94
57 95
57 97
57 98
58 62
58 64
58 68
58 69
58 70
58 71
58 72
58 76
58 78
58 79
58 80
58 82
58 83
58 89
58 91
58 92
58 93
58 95
58 97
58 98
59 60
59 62
59 63
59 67
59 69
59 70
59 75
59 76
59 77
59 78
59 79
59 80
59 81
59 84
59 86
59 88
59 94
59 95
59 96
59 98
59 99
60 62
60 65
60 68
60 70
60 71
60 73
60 74
60 75
60 77
60 80
60 86
60 88
60 89
60 90
60 93
60 96
60 97
61 62
61 63
61 64
61 66
61 67
61 69
61 71
61 72
61 73
61 74
61 76
61 78
61 79
61 81
61 82
61 85
61 86
61 87
61 91
61 92
61 93
61 95
61 97
62 63
62 64
62 65
62 67
62 72
62 73
62 76
62 77
62 78
62 79
62 87
62 88
62 91
62 93
62 94
62 97
63 68
63 71
63 72
63 73
63 75
63 76
63 77
63 78
63 79
63 80
63 82
63 84
63 86
63 89
63 96
64 65
64 66
64 74
64 75
64 76
64 78
64 79
64 83
64 85
64 86
64 88
64 90
64 91
64 92
64 95
64 98
64 99
65 67
65 68
65 71
65 73
65 75
65 76
65 77
65 79
65 81
65 83
65 84
65 87
65 88
65 90
65 92
65 93
65 95
65 96
65 97
65 99
66 68
66 69
66 70
66 72
66 74
66 81
66 82
66 83
66 84
66 91
66 92
66 93
66 97
66 98
66 99
67 68
67 70
67 71
67 72
67 73
67 79
67 81
67 83
67 85
67 86
67 88
67 96
67 99
68 74
68 76
68 77
68 78
68 81
68 82
68 84
68 87
68 88
68 90
68 91
68 94
68 98
69 70
69 71
69 72
69 77
69 78
69 82
69 83
69 84
69 85
69 86
69 87
69 88
69 89
69 90
69 92
69 95
69 97
69 98
70 71
70 74
70 75
70 76
70 77
70 78
70 79
70 80
70 84
70 87
70 88
70 89
70 90
70 93
70 95
70 96
71 73
71 75
71 77
71 78
71 79
71 81
71 83
71 84
71 86
71 87
71 89
71 90
71 91
71 92
71 93
71 94
71 96
71 97
72 73
72 77
72 78
72 79
72 81
72 83
72 85
72 86
72 90
72 91
72 92
72 94
72 96
73 75
73 76
73 78
73 82
73 84
73 85
73 86
73 92
73 97
74 77
74 78
74 79
74 80
74 82
74 83
74 85
74 88
74 89
74 91
74 93
74 95
74 97
74 99
75 76
75 78
75 81
75 87
75 89
75 91
75 95
75 96
75 98
75 99
76 77
76 78
76 81
76 83
76 89
76 92
76 93
76 96
76 97
76 98
76 99
77 78
77 85
77 88
77 89
77 90
77 91
77 94
77 98
78 79
78 82
78 85
78 86
78 87
78 88
78 89
78 90
78 91
78 93
78 94
78 96
78 97
79 81
79 85
79 86
79 87
79 89
79 90
79 91
79 92
79 94
79 95
79 96
79 98
80 81
80 86
80 89
80 90
80 91
80 93
80 94
80 95
80 97
81 87
81 91
81 92
81 94
81 95
81 99
82 84
82 86
82 87
82 92
82 93
82 94
82 95
82 96
82 97
82 98
82 99
83 84
83 85
83 87
83 88
83 91
83 92
83 94
83 95
83 96
83 97
84 86
84 87
84 88
84 89
84 90
84 92
84 95
84 97
84 98
84 99
85 86
85 88
85 90
85 93
85 95
85 97
85 98
86 89
86 93
86 95
86 97
86 98
86 99
87 88
87 90
87 91
87 92
87 94
87 95
87 96
87 97
87 99
88 89
88 90
88 95
88 96
88 97
89 91
89 96
89 98
89 99
90 91
90 92
90 96
90 97
91 92
91 97
91 98
91 99
92 94
92 95
92 96
92 97
93 98
94 96
94 98
94 99
95 98
96 97
96 98
96 99
97 98
97 99
98 99
25 73 63 98 80
33 54 24 92 46
51 72 9 4 90
85 28 12 70 50
38 35 30 31 71
26 47 22 75 37
16 87 3 77 48
49 57 53 1 88
97 96 89 59 86
95 0 42 74 43
45 84 66 68 7
58 69 20 91 83
65 60 34 52 94
27 13 14 15 61
76 29 64 79 62
40 19 55 6 21
18 10 17 8 81
36 2 56 82 32
93 44 78 5 23
11 39 41 99 67
